mapa = [|
         9,9,9,9,9,9,9|
         9,9,0,0,0,0,9|
         9,4,0,1,1,0,9|
         9,0,8,8,8,9,9|
         9,4,0,1,1,0,9|
         9,9,0,0,0,0,9|
         9,9,9,9,9,9,9|];
dimx = 7;
dimy = 7;
filav = 4;
colav = 2;
